p cnf 1141 1277
c ind 785 786 787 800 807 833 894 895 908 915 0
c ind 919 921 924 940 942 945 957 958 977 979 0
c ind 983 994 995 999 1000 1001 1005 1007 778 893 0
c ind 808 820 779 780 892 783 784 891 1094 1095 0
c ind 1093 1092 1126 1108 1117 1131 1112 1122 1139 1125 0
c ind 1107 1116 1130 1111 1121 1138 1090 1091 1124 1106 0
c ind 1115 1129 1110 1120 1137 1089 1123 1105 1114 1128 0
c ind 1109 1119 1136 1084 1100 1104 1134 1088 1087 1086 0
c ind 1085 1082 1083 1102 1132 1103 1133 1081 1076 1080 0
c ind 1079 1078 1077 1113 1127 1118 1135 781 782 1074 0
c ind 1075 1067 1068 1073 1101 1072 1071 1070 1069 1065 0
c ind 1066 1064 1097 1063 1061 1062 1098 1060 1055 1059 0
c ind 1058 1057 1056 1053 1054 1052 1047 1051 1050 1049 0
c ind 1048 1045 1046 1099 1038 1039 1044 1043 1042 1041 0
c ind 1040 1096 1036 1037 1035 1034 1032 1033 1031 1026 0
c ind 1030 1029 1028 1027 1024 1025 1023 1018 1022 1021 0
c ind 1020 1019 1016 1017 1009 1010 1015 1014 1013 1012 0
c ind 1011 989 990 988 987 986 1008 998 996 997 0
c ind 985 984 1006 993 982 1004 1002 1003 991 992 0
c ind 981 980 973 978 976 974 975 972 965 964 0
c ind 971 970 969 968 967 966 963 962 961 960 0
c ind 959 777 952 951 949 950 948 947 953 954 0
c ind 946 944 955 943 956 941 939 937 938 936 0
c ind 935 934 933 932 931 930 928 929 927 926 0
c ind 925 923 922 898 920 918 916 917 790 914 0
c ind 909 913 910 911 905 912 907 903 904 906 0
c ind 902 897 901 899 900 896 890 883 875 889 0
c ind 888 887 886 869 868 867 885 866 884 865 0
c ind 864 863 882 881 880 879 878 877 876 874 0
c ind 873 872 871 870 862 855 847 861 860 859 0
c ind 858 841 840 839 857 838 856 837 836 835 0
c ind 854 853 852 851 850 849 848 846 845 844 0
c ind 843 842 834 832 830 831 821 822 829 828 0
c ind 827 826 825 823 824 817 816 818 819 815 0
c ind 814 813 812 810 811 809 806 805 801 802 0
c ind 803 804 797 799 796 795 798 789 794 788 0
c ind 793 791 792 1 0
c ret 603 604 605 606 607 608 609 610 611 612 0
c ret 613 614 615 616 617 618 619 620 621 622 0
c ret 623 624 625 626 627 628 629 630 631 632 0
c ret 633 634 635 636 637 638 639 640 641 642 0
c ret 643 644 645 646 647 648 649 650 651 652 0
c ret 653 654 655 656 657 658 659 660 661 662 0
c ret 663 664 665 666 667 668 669 670 671 672 0
c ret 673 674 675 676 677 678 679 680 681 682 0
c ret 683 684 685 686 687 688 689 690 691 692 0
c ret 693 694 695 696 697 698 699 700 701 702 0
c ret 703 704 705 706 707 708 709 710 711 712 0
c ret 713 714 715 716 717 718 719 720 721 722 0
c ret 723 724 725 726 727 728 729 730 731 732 0
c ret 733 734 735 736 737 738 739 740 741 298 0
c ret 304 305 306 307 308 309 310 311 312 313 0
c ret 314 315 316 317 318 742 319 743 320 321 0
c ret 744 322 745 323 324 325 326 327 328 329 0
c ret 330 331 332 333 334 335 746 747 336 337 0
c ret 338 748 339 340 749 299 341 342 343 344 0
c ret 345 346 347 348 750 349 350 351 352 353 0
c ret 751 354 752 355 753 356 754 357 358 359 0
c ret 360 361 362 363 364 365 366 367 368 755 0
c ret 369 370 371 372 373 374 756 757 375 376 0
c ret 758 377 759 378 379 380 381 300 382 383 0
c ret 384 385 386 387 388 389 390 391 392 393 0
c ret 394 760 395 761 396 762 397 398 763 399 0
c ret 400 401 402 403 404 405 406 407 408 409 0
c ret 764 410 411 412 765 413 766 414 767 768 0
c ret 415 416 417 418 419 420 421 301 422 423 0
c ret 424 425 426 427 769 770 428 429 430 431 0
c ret 432 771 433 434 435 436 437 438 439 440 0
c ret 441 772 442 443 444 445 446 773 774 447 0
c ret 448 775 449 450 776 451 452 453 454 455 0
c ret 456 457 458 459 460 461 462 463 464 465 0
c ret 466 467 468 469 470 471 472 473 474 475 0
c ret 476 477 478 479 480 481 482 483 484 485 0
c ret 486 487 488 489 490 491 492 302 493 494 0
c ret 495 496 497 498 499 500 501 502 503 504 0
c ret 505 506 507 508 509 510 511 512 513 514 0
c ret 515 516 517 518 519 520 521 522 523 524 0
c ret 525 526 527 528 529 530 531 303 532 533 0
c ret 534 535 536 537 538 539 540 541 542 543 0
c ret 544 545 546 547 548 549 550 551 552 553 0
c ret 554 555 556 557 558 559 560 561 562 563 0
c ret 564 565 566 567 568 569 570 571 572 573 0
c ret 574 575 576 577 578 579 580 581 582 583 0
c ret 584 585 586 587 588 589 590 591 592 593 0
c ret 594 595 596 597 598 599 600 601 602 0
2 3 -292 -296 0
2 128 -292 -296 0
-2 296 0
-2 292 0
-2 -3 -128 0
3 -4 -56 118 0
3 4 56 -108 0
3 4 56 118 0
3 -4 -56 -108 0
-3 4 -56 0
-3 -4 56 0
-3 108 -118 0
4 -5 -13 0
4 -5 52 0
-4 5 0
-4 13 -52 0
5 -6 9 0
5 -6 8 12 0
-5 6 0
-5 -8 -9 0
-5 -9 -12 0
6 -7 -559 -588 0
-6 559 0
-6 588 0
-6 7 0
7 -617 -646 -675 -704 0
-7 704 0
-7 617 0
-7 675 0
-7 646 0
8 530 0
8 -531 -537 0
8 531 -538 0
-8 -530 531 538 0
-8 -530 -531 537 0
9 -10 11 0
-9 10 0
-9 -11 0
10 530 0
10 -531 537 0
10 531 538 0
-10 -530 531 -538 0
-10 -530 -531 -537 0
8 11 -539 545 0
8 11 539 546 0
-8 -11 0
-11 539 -546 0
-11 -539 -545 0
-8 12 0
12 -539 545 0
12 539 546 0
8 -12 -539 -545 0
8 -12 539 -546 0
13 -14 -51 -754 0
13 14 -15 -51 0
-13 51 0
-13 -14 754 0
-13 14 15 0
14 525 -527 0
-14 -525 0
-14 527 0
15 -16 -753 0
15 16 -17 0
-15 -16 753 0
-15 16 17 0
16 497 -499 0
-16 -497 0
-16 499 0
17 18 43 50 0
17 18 43 -46 0
-17 -18 0
-17 -43 0
-17 46 -50 0
18 -41 298 -473 0
18 19 298 473 0
-18 -298 0
-18 41 -473 0
-18 -19 473 0
19 -20 -750 0
-19 750 0
-19 20 0
20 21 -25 0
-20 -21 0
-20 25 0
21 -22 -330 0
21 -24 -330 0
21 -23 -330 0
-21 330 0
-21 22 23 24 0
22 -331 332 333 0
-22 331 0
-22 -333 0
-22 -332 0
23 336 339 340 0
-23 -336 0
-23 -340 0
-23 -339 0
24 -336 337 338 0
-24 336 0
-24 -338 0
-24 -337 0
25 26 -33 0
25 26 36 -363 0
-25 -26 0
-25 33 -36 0
-25 33 363 0
26 -27 30 0
26 30 384 0
-26 -30 0
-26 27 -384 0
27 -29 387 390 0
27 -28 -29 387 0
-27 -387 0
-27 29 0
-27 28 -390 0
28 388 -389 0
-28 -388 0
-28 389 0
29 385 386 0
-29 -385 0
-29 -386 0
28 -29 30 31 -32 0
29 -30 0
-30 -31 0
-28 -30 0
-30 32 0
31 396 397 0
31 396 404 405 0
-31 -396 0
-31 -397 -404 0
-31 -397 -405 0
32 -384 387 390 -391 0
-32 391 0
-32 -390 0
-32 384 0
-32 -387 0
33 34 -356 0
33 35 -356 -362 0
-33 356 0
-33 -34 362 0
-33 -34 -35 0
34 357 358 359 0
-34 -357 0
-34 -359 0
-34 -358 0
35 360 -361 0
-35 -360 0
-35 361 0
36 37 39 0
-36 -37 0
-36 -39 0
37 -38 362 -368 0
-37 38 0
-37 368 0
-37 -362 0
-34 35 38 -356 -363 0
34 -38 0
-35 -38 0
-38 356 0
-38 363 0
-38 39 -40 -376 0
-38 39 -40 -377 0
-39 40 0
38 -39 0
-39 376 377 0
40 362 368 -369 0
-40 369 0
-40 -368 0
-40 -362 0
41 -42 751 0
19 41 42 0
-41 -42 -751 0
-19 -41 42 0
42 439 -441 0
-42 -439 0
-42 441 0
43 -44 -45 -483 0
43 -44 -45 -484 0
-43 45 0
-43 44 0
-43 483 484 0
44 486 487 488 489 0
-44 -489 0
-44 -488 0
-44 -486 0
-44 -487 0
45 -480 -481 -482 485 0
-45 482 0
-45 -485 0
-45 480 0
-45 481 0
41 46 -47 0
-41 -46 0
-46 47 0
47 48 49 0
-47 -48 0
-47 -49 0
48 452 453 454 0
-48 -452 0
-48 -454 0
-48 -453 0
49 460 -462 0
-49 -460 0
-49 462 0
49 50 -298 0
50 -298 752 0
-50 298 0
-49 -50 -752 0
51 -494 501 0
-51 494 0
-51 -501 0
52 53 -494 0
15 17 52 0
17 52 53 0
15 52 -494 0
-17 -52 494 0
-15 -52 -53 0
53 55 -494 -501 0
53 54 -494 -501 0
-53 494 0
-53 501 0
-53 -54 -55 0
54 -502 503 0
-54 502 0
-54 -503 0
55 505 -506 -507 508 0
-55 -505 0
-55 -508 0
-55 507 0
-55 506 0
56 -57 -67 0
56 -57 104 0
-56 57 0
-56 67 -104 0
57 58 -61 0
-57 -58 0
-57 61 0
58 -59 -60 0
-58 59 0
-58 60 0
59 1038 0
59 -1039 -1045 0
59 1039 -1046 0
-59 -1038 1039 1046 0
-59 -1038 -1039 1045 0
60 1038 0
60 -1039 1045 0
60 1039 1046 0
-60 -1038 1039 -1046 0
-60 -1038 -1039 -1045 0
61 63 -1067 0
61 62 66 -1067 0
-61 1067 0
-61 -62 -63 0
-61 -63 -66 0
62 1009 0
62 -1010 -1016 0
62 1010 -1017 0
-62 -1009 1010 1017 0
-62 -1009 -1010 1016 0
63 -64 -65 0
-62 63 -65 0
-63 65 0
62 -63 64 0
-62 64 0
64 1018 -1025 0
64 -1018 -1024 0
62 -64 -1018 1024 0
62 -64 1018 1025 0
65 1009 0
65 -1010 1016 0
65 1010 1017 0
-65 -1009 1010 -1017 0
-65 -1009 -1010 -1016 0
-62 66 0
66 -1018 1024 0
66 1018 1025 0
62 -66 -1018 -1024 0
62 -66 1018 -1025 0
67 -68 -103 -1117 0
67 68 -69 -103 0
-67 103 0
-67 -68 1117 0
-67 68 69 0
68 1004 -1006 0
-68 -1004 0
-68 1006 0
69 -70 -1116 0
69 70 -71 0
-69 -70 1116 0
-69 70 71 0
70 976 -978 0
-70 -976 0
-70 978 0
71 72 95 102 0
71 72 95 -98 0
-71 -72 0
-71 -95 0
-71 98 -102 0
72 -93 777 -952 0
72 73 777 952 0
-72 -777 0
-72 93 -952 0
-72 -73 952 0
73 -74 -1113 0
-73 1113 0
-73 74 0
74 -75 89 0
-74 75 0
-74 -89 0
75 -82 83 0
75 76 83 -842 0
-75 -83 0
-75 -76 82 0
-75 82 842 0
76 77 0
76 80 -841 0
76 80 847 0
-76 -77 -80 0
-76 -77 841 -847 0
77 -78 79 -835 -842 0
-77 78 0
-77 -79 0
-77 835 0
-77 842 0
78 836 837 838 0
-78 -836 0
-78 -838 0
-78 -837 0
79 839 -840 0
-79 -839 0
-79 840 0
80 81 841 847 -848 0
-80 -841 0
-80 -81 0
-80 848 0
-80 -847 0
81 855 856 0
-81 -855 0
-81 -856 0
78 82 -835 0
79 82 -835 -841 0
-82 835 0
-78 -82 841 0
-78 -79 -82 0
83 85 88 0
83 85 -87 0
83 84 85 0
-83 -85 0
-83 -84 87 -88 0
84 864 865 866 0
-84 -864 0
-84 -866 0
-84 -865 0
84 85 -863 0
85 86 -863 -869 0
-85 863 0
-84 -85 869 0
-84 -85 -86 0
86 867 -868 0
-86 -867 0
-86 868 0
87 875 876 0
87 875 883 884 0
-87 -875 0
-87 -876 -883 0
-87 -876 -884 0
86 88 -863 869 -870 0
-88 870 0
-86 -88 0
-88 863 0
-88 -869 0
89 -90 -809 0
89 -92 -809 0
89 -91 -809 0
-89 809 0
-89 90 91 92 0
90 -810 811 812 0
-90 810 0
-90 -812 0
-90 -811 0
91 815 818 819 0
-91 -815 0
-91 -819 0
-91 -818 0
92 -815 816 817 0
-92 815 0
-92 -817 0
-92 -816 0
93 -94 1114 0
73 93 94 0
-93 -94 -1114 0
-73 -93 94 0
94 918 -920 0
-94 -918 0
-94 920 0
95 -96 -97 -962 0
95 -96 -97 -963 0
-95 97 0
-95 96 0
-95 962 963 0
96 965 966 967 968 0
-96 -968 0
-96 -967 0
-96 -965 0
-96 -966 0
97 -959 -960 -961 964 0
-97 961 0
-97 -964 0
-97 959 0
-97 960 0
93 98 -99 0
-93 -98 0
-98 99 0
99 100 101 0
-99 -100 0
-99 -101 0
100 931 932 933 0
-100 -931 0
-100 -933 0
-100 -932 0
101 939 -941 0
-101 -939 0
-101 941 0
101 102 -777 0
102 -777 1115 0
-102 777 0
-101 -102 -1115 0
103 -973 980 0
-103 973 0
-103 -980 0
104 105 -973 0
69 71 104 0
71 104 105 0
69 104 -973 0
-71 -104 973 0
-69 -104 -105 0
105 107 -973 -980 0
105 106 -973 -980 0
-105 973 0
-105 980 0
-105 -106 -107 0
106 984 -985 -986 987 0
-106 -984 0
-106 -987 0
-106 986 0
-106 985 0
107 -981 982 0
-107 981 0
-107 -982 0
-57 108 -109 0
-57 108 117 0
57 -108 0
-108 109 -117 0
68 -103 109 -110 0
-68 -103 109 -1139 0
103 -109 0
68 -109 110 0
-68 -109 1139 0
-70 110 -1138 0
70 110 -111 0
-70 -110 1138 0
70 -110 111 0
95 111 112 116 0
95 111 112 -115 0
-95 -111 0
-111 -112 0
-111 115 -116 0
112 -114 777 -952 0
112 113 777 952 0
-112 -777 0
-112 114 -952 0
-112 -113 952 0
-74 113 -1135 0
-113 1135 0
74 -113 0
-94 114 1136 0
94 113 114 0
-94 -114 -1136 0
94 -113 -114 0
-99 114 115 0
99 -115 0
-114 -115 0
101 116 -777 0
116 -777 1137 0
-116 777 0
-101 -116 -1137 0
110 117 -973 0
105 111 117 0
110 111 117 0
105 117 -973 0
-105 -110 -117 0
-111 -117 973 0
-5 118 -119 0
-5 118 127 0
5 -118 0
-118 119 -127 0
14 -51 119 -120 0
-14 -51 119 -776 0
51 -119 0
14 -119 120 0
-14 -119 776 0
-16 120 -775 0
16 120 -121 0
-16 -120 775 0
16 -120 121 0
43 121 122 126 0
43 121 122 -125 0
-43 -121 0
-121 -122 0
-121 125 -126 0
122 -124 298 -473 0
122 123 298 473 0
-122 -298 0
-122 124 -473 0
-122 -123 473 0
-20 123 -772 0
-123 772 0
20 -123 0
-42 124 773 0
42 123 124 0
-42 -124 -773 0
42 -123 -124 0
-47 124 125 0
47 -125 0
-124 -125 0
49 126 -298 0
126 -298 774 0
-126 298 0
-49 -126 -774 0
120 127 -494 0
53 121 127 0
120 121 127 0
53 127 -494 0
-53 -120 -127 0
-121 -127 494 0
128 129 138 -147 -271 0
128 -129 -138 -147 -271 0
-128 271 0
-128 -129 138 0
-128 147 0
-128 129 -138 0
-5 129 -130 0
-5 129 137 0
5 -129 0
-129 130 -137 0
14 -51 130 -131 0
-14 -51 130 -749 0
51 -130 0
14 -130 131 0
-14 -130 749 0
-16 131 -748 0
16 131 -132 0
-16 -131 748 0
16 -131 132 0
43 132 133 136 0
43 132 133 -135 0
-43 -132 0
-132 -133 0
-132 135 -136 0
133 -134 298 -473 0
20 133 298 473 0
-133 -298 0
-133 134 -473 0
-20 -133 473 0
-42 134 746 0
20 42 134 0
-42 -134 -746 0
-20 42 -134 0
-47 134 135 0
47 -135 0
-134 -135 0
49 136 -298 0
136 -298 747 0
-136 298 0
-49 -136 -747 0
131 137 -494 0
53 132 137 0
131 132 137 0
53 137 -494 0
-53 -131 -137 0
-132 -137 494 0
-57 138 -139 0
-57 138 146 0
57 -138 0
-138 139 -146 0
68 -103 139 -140 0
-68 -103 139 -1112 0
103 -139 0
68 -139 140 0
-68 -139 1112 0
-70 140 -1111 0
70 140 -141 0
-70 -140 1111 0
70 -140 141 0
95 141 142 145 0
95 141 142 -144 0
-95 -141 0
-141 -142 0
-141 144 -145 0
142 -143 777 -952 0
74 142 777 952 0
-142 -777 0
-142 143 -952 0
-74 -142 952 0
-94 143 1109 0
74 94 143 0
-94 -143 -1109 0
-74 94 -143 0
-99 143 144 0
99 -144 0
-143 -144 0
101 145 -777 0
145 -777 1110 0
-145 777 0
-101 -145 -1110 0
140 146 -973 0
105 141 146 0
140 141 146 0
105 146 -973 0
-105 -140 -146 0
-141 -146 973 0
147 -148 -197 -250 -260 0
147 -148 -197 250 260 0
-147 197 0
-147 250 -260 0
-147 148 0
-147 -250 260 0
148 -149 -163 -188 0
148 149 163 179 0
148 149 163 -188 0
148 -149 -163 179 0
-148 149 -163 0
-148 -149 163 0
-148 -179 188 0
-5 149 -150 0
-5 149 -161 0
-5 149 -160 0
5 -149 0
-149 150 160 161 0
150 153 -154 0
-47 150 151 -154 0
-150 154 0
-150 -151 -153 0
47 -150 -153 0
-42 151 765 0
42 151 152 0
-42 -151 -765 0
42 -151 -152 0
-20 152 -764 0
-152 764 0
20 -152 0
49 153 -298 0
153 -298 766 0
-153 298 0
-49 -153 -766 0
154 -155 159 0
-154 155 0
-154 -159 0
43 155 156 0
-43 -155 0
-155 -156 0
-16 156 -494 0
156 -157 -494 0
-156 494 0
16 -156 157 0
-14 157 158 501 0
-54 157 158 -501 0
-157 -158 0
54 -157 -501 0
14 -157 501 0
-54 55 158 -494 -501 0
54 -158 0
-55 -158 0
-158 494 0
-158 501 0
-151 159 298 -473 0
152 159 298 473 0
-159 -298 0
151 -159 -473 0
-152 -159 473 0
-14 -51 160 -768 0
-160 768 0
14 -160 0
51 -160 0
-16 161 -162 -767 0
-161 767 0
16 -161 0
-161 162 0
157 162 -494 0
-162 494 0
-157 -162 0
163 -164 -165 0
163 -164 -177 0
163 -164 -176 0
-163 164 0
-163 165 176 177 0
-61 164 -1038 0
-164 1038 0
61 -164 0
165 168 -169 0
-99 165 166 -169 0
-165 169 0
-165 -166 -168 0
99 -165 -168 0
-94 166 1128 0
94 166 167 0
-94 -166 -1128 0
94 -166 -167 0
-74 167 -1127 0
-167 1127 0
74 -167 0
101 168 -777 0
168 -777 1129 0
-168 777 0
-101 -168 -1129 0
169 -170 175 0
-169 170 0
-169 -175 0
95 170 171 0
-95 -170 0
-170 -171 0
-70 171 -973 0
171 -172 -973 0
-171 973 0
70 -171 172 0
-68 172 173 980 0
-107 172 173 -980 0
-172 -173 0
107 -172 -980 0
68 -172 980 0
106 173 -174 0
-106 -173 0
-173 174 0
174 -973 -980 -981 982 0
-174 981 0
-174 -982 0
-174 973 0
-174 980 0
-166 175 777 -952 0
167 175 777 952 0
-175 -777 0
166 -175 -952 0
-167 -175 952 0
-68 -103 176 -1131 0
-176 1131 0
68 -176 0
103 -176 0
-70 177 -178 -1130 0
-177 1130 0
70 -177 0
-177 178 0
172 178 -973 0
-178 973 0
-172 -178 0
-164 179 -180 0
-164 179 -187 0
-164 179 -186 0
164 -179 0
-179 180 186 187 0
180 183 -184 0
-99 180 181 -184 0
-180 184 0
-180 -181 -183 0
99 -180 -183 0
-94 181 1119 0
94 181 182 0
-94 -181 -1119 0
94 -181 -182 0
-74 182 -1118 0
-182 1118 0
74 -182 0
101 183 -777 0
183 -777 1120 0
-183 777 0
-101 -183 -1120 0
-170 184 185 0
170 -184 0
-184 -185 0
-181 185 777 -952 0
182 185 777 952 0
-185 -777 0
181 -185 -952 0
-182 -185 952 0
-68 -103 186 -1122 0
-186 1122 0
68 -186 0
103 -186 0
-70 -178 187 -1121 0
-187 1121 0
70 -187 0
178 -187 0
-6 188 195 -530 0
-6 188 -189 -530 0
-188 530 0
6 -188 0
-188 189 -195 0
189 192 -193 0
-47 189 190 -193 0
-189 193 0
-189 -190 -192 0
47 -189 -192 0
-42 190 756 0
42 190 191 0
-42 -190 -756 0
42 -190 -191 0
-20 191 -755 0
-191 755 0
20 -191 0
49 192 -298 0
192 -298 757 0
-192 298 0
-49 -192 -757 0
-155 193 194 0
155 -193 0
-193 -194 0
-190 194 298 -473 0
191 194 298 473 0
-194 -298 0
190 -194 -473 0
-191 -194 473 0
14 195 196 0
51 195 196 0
195 196 759 0
-195 -196 0
-14 -51 -195 -759 0
-16 -162 196 -758 0
-196 758 0
16 -196 0
162 -196 0
197 198 199 210 -222 0
197 198 -199 -210 -222 0
-197 222 0
-197 -199 210 0
-197 -198 0
-197 199 -210 0
179 -188 198 0
-179 -198 0
188 -198 0
199 -203 777 0
100 199 -200 -203 0
-199 203 0
-199 200 -777 0
-100 -199 -777 0
200 896 -1134 0
200 -201 -896 0
-200 201 -896 0
-200 896 1134 0
-75 201 -1096 0
-75 89 201 202 0
75 -201 0
-201 -202 1096 0
-89 -201 1096 0
202 788 1133 0
-202 -788 0
-202 -1133 0
203 204 -207 0
-203 -204 0
-203 207 0
200 204 205 0
200 201 204 0
201 204 -205 777 0
-200 -204 205 0
-201 -204 -205 0
-200 -204 -777 0
205 -206 952 953 956 0
-205 206 0
-205 -956 0
-205 -952 0
-205 -953 0
206 954 955 0
-206 -954 0
-206 -955 0
63 207 -208 0
66 207 -208 -1009 0
-207 208 0
-63 -66 -207 0
-63 -207 1009 0
58 208 -209 -1067 0
-208 1067 0
-58 -208 0
-208 209 0
95 174 209 0
95 106 209 0
-95 -209 0
-106 -174 -209 0
210 -214 298 0
48 210 -211 -214 0
-210 214 0
-210 211 -298 0
-48 -210 -298 0
211 417 -771 0
211 -212 -417 0
-211 212 -417 0
-211 417 771 0
-25 212 -733 0
21 -25 212 213 0
25 -212 0
-212 -213 733 0
-21 -212 733 0
213 309 770 0
-213 -309 0
-213 -770 0
214 215 -218 0
-214 -215 0
-214 218 0
211 215 216 0
211 212 215 0
212 215 -216 298 0
-211 -215 216 0
-212 -215 -216 0
-211 -215 -298 0
216 -217 473 474 477 0
-216 217 0
-216 -477 0
-216 -473 0
-216 -474 0
217 475 476 0
-217 -475 0
-217 -476 0
-6 218 -219 0
6 -218 0
-218 219 0
9 219 -220 0
12 219 -220 -530 0
-219 220 0
-9 -12 -219 0
-9 -219 530 0
43 220 221 0
43 55 220 0
43 220 494 0
-43 -220 0
-55 -220 -221 -494 0
-54 221 -501 0
-221 501 0
54 -221 0
222 -223 -231 -239 0
222 223 231 -239 0
-222 239 0
-222 -223 231 0
-222 223 -231 0
-207 223 224 0
207 -223 0
-223 -224 0
205 224 -225 0
224 229 230 0
224 -225 229 0
-224 225 -230 0
-205 -224 -229 0
-224 225 -229 0
225 226 -896 0
-75 225 -228 896 0
-225 -226 -896 0
75 -225 896 0
-225 228 896 0
-75 226 -227 0
75 -226 0
-226 227 0
227 -1096 -1098 0
89 227 1096 0
227 -1096 -1102 0
-89 -227 1096 0
-227 -1096 1098 1102 0
228 -1096 1098 1104 0
-228 1096 0
-228 -1104 0
-228 -1098 0
205 229 777 0
-226 229 777 0
-229 -777 0
-205 226 -229 0
100 230 -777 0
-230 777 0
-100 -230 0
-218 231 232 0
218 -231 0
-231 -232 0
216 232 -233 0
232 237 238 0
232 -233 237 0
-232 233 -238 0
-216 -232 -237 0
-232 233 -237 0
233 234 -417 0
-25 233 -236 417 0
-233 -234 -417 0
25 -233 417 0
-233 236 417 0
-25 234 -235 0
25 -234 0
-234 235 0
235 -733 -735 0
21 235 733 0
235 -733 -739 0
-21 -235 733 0
-235 -733 735 739 0
236 -733 735 741 0
-236 733 0
-236 -741 0
-236 -735 0
216 237 298 0
-234 237 298 0
-237 -298 0
-216 234 -237 0
48 238 -298 0
-238 298 0
-48 -238 0
239 240 242 245 -246 0
239 -240 -242 245 -246 0
-239 -245 0
-239 240 -242 0
-239 246 0
-239 -240 242 0
-6 -25 -219 240 -241 0
-240 241 0
6 -240 0
219 -240 0
25 -240 0
241 298 -733 735 0
48 241 -733 735 0
-241 733 0
-241 -735 0
-48 -241 -298 0
-75 -207 242 -243 244 0
-242 243 0
-242 -244 0
75 -242 0
207 -242 0
243 -1096 1098 0
-243 1096 0
-243 -1098 0
-100 244 -777 0
-244 777 0
100 -244 0
-64 -65 -66 245 0
64 -245 0
65 -245 0
66 -245 0
89 -209 246 -247 -249 0
-89 -246 0
-246 249 0
-246 247 0
209 -246 0
244 247 -248 -779 0
244 247 -248 -780 0
-247 248 0
-244 -247 0
-247 779 780 0
248 -781 -1038 -1067 0
248 782 -1038 -1067 0
-248 1067 0
-248 1038 0
-248 781 -782 0
-82 83 249 0
76 83 249 0
-83 -249 0
-76 82 -249 0
-57 171 250 251 0
-57 250 251 259 0
57 -250 0
-250 -251 0
-171 -250 -259 0
251 253 973 0
70 251 252 253 0
-251 -253 0
-251 -252 -973 0
-70 -251 -973 0
-68 252 980 -1126 0
68 -252 0
-252 1126 0
-252 -980 0
95 253 254 258 0
95 253 254 -257 0
-95 -253 0
-253 -254 0
-253 257 -258 0
254 -256 777 -952 0
254 255 777 952 0
-254 -777 0
-254 256 -952 0
-254 -255 952 0
-74 255 -781 0
-255 781 0
74 -255 0
-94 256 1123 0
94 255 256 0
-94 -256 -1123 0
94 -255 -256 0
-99 256 257 0
99 -257 0
-256 -257 0
101 258 -777 0
258 -777 1124 0
-258 777 0
-101 -258 -1124 0
-172 252 259 0
252 259 1125 0
-252 -259 0
172 -259 -1125 0
-5 156 260 261 0
-5 260 261 270 0
5 -260 0
-260 -261 0
-156 -260 -270 0
261 -263 264 0
16 261 262 264 0
-261 -264 0
-261 -262 263 0
-16 -261 263 0
-14 262 501 -763 0
14 -262 0
-262 763 0
-262 -501 0
16 263 494 0
263 494 762 0
158 263 494 0
-263 -494 0
-16 -158 -263 -762 0
43 264 265 269 0
43 264 265 -268 0
-43 -264 0
-264 -265 0
-264 268 -269 0
265 -267 298 -473 0
265 266 298 473 0
-265 -298 0
-265 267 -473 0
-265 -266 473 0
-20 266 -302 0
-266 302 0
20 -266 0
-42 267 760 0
42 266 267 0
-42 -267 -760 0
42 -266 -267 0
-47 267 268 0
47 -268 0
-267 -268 0
49 269 -298 0
269 -298 761 0
-269 298 0
-49 -269 -761 0
-157 262 270 0
262 270 762 0
-262 -270 0
157 -270 -762 0
108 271 -272 -282 0
-118 271 272 282 0
108 271 272 282 0
-118 271 -272 -282 0
-271 272 -282 0
-271 -272 282 0
-108 118 -271 0
-57 272 -273 0
-57 272 281 0
57 -272 0
-272 273 -281 0
68 -103 273 -274 0
-68 -103 273 -1108 0
103 -273 0
68 -273 274 0
-68 -273 1108 0
-70 274 -1107 0
70 274 -275 0
-70 -274 1107 0
70 -274 275 0
95 275 276 280 0
95 275 276 -279 0
-95 -275 0
-275 -276 0
-275 279 -280 0
276 277 -777 1106 0
101 276 277 -777 0
-276 777 0
-276 -277 0
-101 -276 -1106 0
-99 277 278 0
99 -277 0
-277 -278 0
74 94 278 0
-94 278 1105 0
94 278 782 0
-94 -278 -1105 0
-74 94 -278 -782 0
-74 94 279 -782 0
-74 279 -782 952 0
74 -279 0
-279 782 0
-94 -279 -952 0
280 777 1105 0
280 777 952 0
94 280 777 0
-280 -777 0
-94 -280 -952 -1105 0
274 281 -973 0
105 275 281 0
274 275 281 0
105 281 -973 0
-105 -274 -281 0
-275 -281 973 0
-5 282 -283 0
-5 282 291 0
5 -282 0
-282 283 -291 0
14 -51 283 -284 0
-14 -51 283 -745 0
51 -283 0
14 -283 284 0
-14 -283 745 0
-16 284 -744 0
16 284 -285 0
-16 -284 744 0
16 -284 285 0
43 285 286 290 0
43 285 286 -289 0
-43 -285 0
-285 -286 0
-285 289 -290 0
286 287 -298 743 0
49 286 287 -298 0
-286 298 0
-286 -287 0
-49 -286 -743 0
-47 287 288 0
47 -287 0
-287 -288 0
20 42 288 0
-42 288 742 0
42 288 303 0
-42 -288 -742 0
-20 42 -288 -303 0
-20 42 289 -303 0
-20 289 -303 473 0
20 -289 0
-289 303 0
-42 -289 -473 0
290 298 742 0
290 298 473 0
42 290 298 0
-290 -298 0
-42 -290 -473 -742 0
284 291 -494 0
53 285 291 0
284 285 291 0
53 291 -494 0
-53 -284 -291 0
-285 -291 494 0
21 26 -220 292 -293 0
-21 -292 0
-292 293 0
220 -292 0
-26 -292 0
-7 293 -294 298 0
-7 48 293 -294 0
-293 294 0
7 -293 0
-48 -293 -298 0
294 -295 -302 0
294 -295 303 0
-294 295 0
-294 302 -303 0
295 -300 -559 -588 0
295 -301 -559 -588 0
-295 588 0
-295 559 0
-295 300 301 0
10 296 297 0
8 296 297 0
-296 -297 0
-8 -10 -296 0
33 37 39 297 0
-33 -297 0
-39 -297 0
-37 -297 0
1 2 0
-1 -2 0
1140 0

